
List of user-set options:

                                    Name   Value                used
                           compl_inf_tol = 1                     yes
                         constr_viol_tol = 1                     yes
                            dual_inf_tol = 1000                  yes
                           linear_solver = ma97                  yes
                              ma86_small = 1e-30                  no
                                  ma86_u = 0.0001                 no
                              ma97_order = best                  yes
                              ma97_small = 1e-30                 yes
                            ma97_switch1 = at_start              yes
                            ma97_switch2 = od_hd_reuse           yes
                                  ma97_u = 1e-06                 yes
                               ma97_umax = 0.5                   yes
                                max_iter = 1000                  yes
                    max_refinement_steps = 20                    yes
                    min_refinement_steps = 5                     yes
                                 mu_init = 1e-06                 yes
           mu_superlinear_decrease_power = 1.25                  yes
                   nlp_scaling_min_value = 1e-08                 yes
                        option_file_name = Preset_Case:_16_pf.opt  yes
                             output_file = ./tmp/Preset_Case:_16_pf.output  yes
                      print_user_options = yes                   yes
        required_infeasibility_reduction = 1                      no
                                     tol = 1e-08                 yes
                   warm_start_bound_frac = 1e-20                 yes
                   warm_start_bound_push = 1e-20                 yes
                   warm_start_init_point = yes                   yes
              warm_start_mult_bound_push = 1e-20                 yes
                warm_start_mult_init_max = 1e+40                 yes
             warm_start_slack_bound_frac = 1e-20                 yes
             warm_start_slack_bound_push = 1e-20                 yes

******************************************************************************
This program contains Ipopt, a library for large-scale nonlinear optimization.
 Ipopt is released as open source code under the Eclipse Public License (EPL).
         For more information visit http://projects.coin-or.org/Ipopt
******************************************************************************

This is Ipopt version 3.12.10, running with linear solver ma97.

Number of nonzeros in equality constraint Jacobian...:   123421
Number of nonzeros in inequality constraint Jacobian.:      213
Number of nonzeros in Lagrangian Hessian.............:    49047

Total number of variables............................:    31589
                     variables with only lower bounds:    12912
                variables with lower and upper bounds:    15128
                     variables with only upper bounds:        0
Total number of equality constraints.................:    31483
Total number of inequality constraints...............:       25
        inequality constraints with only lower bounds:        4
   inequality constraints with lower and upper bounds:        0
        inequality constraints with only upper bounds:       21

iter    objective    inf_pr   inf_du lg(mu)  ||d||  lg(rg) alpha_du alpha_pr  ls
   0 -6.2402677e+00 4.05e-03 1.47e-07  -6.0 0.00e+00    -  0.00e+00 0.00e+00   0
   1 -6.2402676e+00 3.38e-03 2.75e+01  -6.0 1.55e+02    -  1.24e-01 1.74e-03h  1
   2 -6.2392829e+00 1.15e-01 6.66e+02  -6.0 2.94e+03    -  3.51e-03 1.81e-01f  1
   3 -6.2662460e+00 2.50e-01 6.41e+02  -6.0 1.21e+05    -  1.19e-03 4.40e-03f  1
   4 -6.2607889e+00 2.02e-01 5.08e+02  -6.0 2.10e+02    -  5.31e-01 2.07e-01h  1
   5 -6.2408230e+00 8.23e-02 3.23e+01  -6.0 1.50e+02    -  7.41e-01 9.61e-01h  1
   6 -6.2401712e+00 1.43e-03 4.17e+01  -6.0 1.92e+01    -  5.46e-01 1.00e+00h  1
   7 -6.2401102e+00 2.19e-04 8.73e+00  -6.0 2.98e+01    -  7.99e-01 1.00e+00h  1
   8 -6.2400588e+00 6.65e-07 4.16e-01  -6.0 1.94e+00    -  9.53e-01 1.00e+00h  1
   9 -6.2400563e+00 6.24e-08 1.15e-03  -6.0 4.88e-01    -  1.00e+00 1.00e+00h  1
iter    objective    inf_pr   inf_du lg(mu)  ||d||  lg(rg) alpha_du alpha_pr  ls
  10 -6.2400563e+00 2.83e-10 2.63e-08  -6.0 2.62e-03    -  1.00e+00 1.00e+00h  1
  11 -6.2402690e+00 2.20e-01 3.57e+01  -7.5 1.41e+02    -  9.10e-01 7.85e-01f  1
  12 -6.2402791e+00 4.72e-02 1.23e+01  -7.5 3.34e+01    -  1.00e+00 8.52e-01h  1
  13 -6.2402784e+00 4.40e-02 1.36e+01  -7.5 4.60e+00    -  1.00e+00 6.74e-02h  1
  14 -6.2402659e+00 3.62e-04 3.76e-03  -7.5 4.43e+00    -  1.00e+00 1.00e+00h  1
  15 -6.2402659e+00 2.42e-09 7.19e-07  -7.5 1.19e-02    -  1.00e+00 1.00e+00h  1
  16 -6.2402659e+00 4.21e-10 2.07e-11  -7.5 3.69e-06    -  1.00e+00 1.00e+00h  1
  17 -6.2402673e+00 2.43e-04 1.64e+00  -9.0 4.77e+00    -  9.49e-01 7.70e-01h  1
  18 -6.2402676e+00 2.20e-05 2.33e-04  -9.0 1.10e+00    -  1.00e+00 1.00e+00h  1
  19 -6.2402676e+00 1.70e-10 3.34e-09  -9.0 7.12e-04    -  1.00e+00 1.00e+00h  1

Number of Iterations....: 19

                                   (scaled)                 (unscaled)
Objective...............:  -4.8752090925422751e+00   -6.2402676384541120e+00
Dual infeasibility......:   3.3369211215133647e-09    4.2712590355371065e-09
Constraint violation....:   1.6980346469186447e-10    1.6980346469186447e-10
Complementarity.........:   1.0736604784090139e-09    1.3742854123635377e-09
Overall NLP error.......:   3.3369211215133647e-09    4.2712590355371065e-09


Number of objective function evaluations             = 20
Number of objective gradient evaluations             = 20
Number of equality constraint evaluations            = 20
Number of inequality constraint evaluations          = 20
Number of equality constraint Jacobian evaluations   = 20
Number of inequality constraint Jacobian evaluations = 20
Number of Lagrangian Hessian evaluations             = 19
Total CPU secs in IPOPT (w/o function evaluations)   =     23.861
Total CPU secs in NLP function evaluations           =      0.464

EXIT: Optimal Solution Found.
